! wB97X-D3 def2-TZVP def2/J RIJCOSX defgrid3 cpcmc(Methanol) tightSCF noautostart miniprint nopop aim
%pal nprocs 1 end
%output
Print[P_Hirshfeld] 1
end
* xyzfile -1 2 Optimization.xyz

