! wB97X-D3 def2-TZVP def2/J RIJCOSX opt defgrid3 cpcmc(Methanol) tightSCF noautostart miniprint nopop 
%pal nprocs 1 end
%scf ConvForced true end
* xyzfile 0 1 sample.xyz

